p cnf 234 1476
1 -145 -109 0
-1 145 -109 0
1 145 -110 0
-1 -145 -110 0
19 -145 -115 0
-19 145 -115 0
19 145 -116 0
-19 -145 -116 0
37 -145 -121 0
-37 145 -121 0
37 145 -122 0
-37 -145 -122 0
55 -145 -127 0
-55 145 -127 0
55 145 -128 0
-55 -145 -128 0
73 -145 -133 0
-73 145 -133 0
73 145 -134 0
-73 -145 -134 0
91 -145 -139 0
-91 145 -139 0
91 145 -140 0
-91 -145 -140 0
2 -146 -109 0
-2 146 -109 0
2 146 -110 0
-2 -146 -110 0
20 -146 -115 0
-20 146 -115 0
20 146 -116 0
-20 -146 -116 0
38 -146 -121 0
-38 146 -121 0
38 146 -122 0
-38 -146 -122 0
56 -146 -127 0
-56 146 -127 0
56 146 -128 0
-56 -146 -128 0
74 -146 -133 0
-74 146 -133 0
74 146 -134 0
-74 -146 -134 0
92 -146 -139 0
-92 146 -139 0
92 146 -140 0
-92 -146 -140 0
3 -147 -109 0
-3 147 -109 0
3 147 -110 0
-3 -147 -110 0
21 -147 -115 0
-21 147 -115 0
21 147 -116 0
-21 -147 -116 0
39 -147 -121 0
-39 147 -121 0
39 147 -122 0
-39 -147 -122 0
57 -147 -127 0
-57 147 -127 0
57 147 -128 0
-57 -147 -128 0
75 -147 -133 0
-75 147 -133 0
75 147 -134 0
-75 -147 -134 0
93 -147 -139 0
-93 147 -139 0
93 147 -140 0
-93 -147 -140 0
4 -148 -109 0
-4 148 -109 0
4 148 -110 0
-4 -148 -110 0
22 -148 -115 0
-22 148 -115 0
22 148 -116 0
-22 -148 -116 0
40 -148 -121 0
-40 148 -121 0
40 148 -122 0
-40 -148 -122 0
58 -148 -127 0
-58 148 -127 0
58 148 -128 0
-58 -148 -128 0
76 -148 -133 0
-76 148 -133 0
76 148 -134 0
-76 -148 -134 0
94 -148 -139 0
-94 148 -139 0
94 148 -140 0
-94 -148 -140 0
5 -109 0
5 -110 0
109 -109 0
110 -110 0
23 -115 0
23 -116 0
115 -115 0
116 -116 0
41 -121 0
41 -122 0
121 -121 0
122 -122 0
59 -127 0
59 -128 0
127 -127 0
128 -128 0
77 -133 0
77 -134 0
133 -133 0
134 -134 0
95 -139 0
95 -140 0
139 -139 0
140 -140 0
6 -109 0
6 -110 0
109 -109 0
110 -110 0
24 -115 0
24 -116 0
115 -115 0
116 -116 0
42 -121 0
42 -122 0
121 -121 0
122 -122 0
60 -127 0
60 -128 0
127 -127 0
128 -128 0
78 -133 0
78 -134 0
133 -133 0
134 -134 0
96 -139 0
96 -140 0
139 -139 0
140 -140 0
7 -109 0
7 -110 0
109 -109 0
110 -110 0
25 -115 0
25 -116 0
115 -115 0
116 -116 0
43 -121 0
43 -122 0
121 -121 0
122 -122 0
61 -127 0
61 -128 0
127 -127 0
128 -128 0
79 -133 0
79 -134 0
133 -133 0
134 -134 0
97 -139 0
97 -140 0
139 -139 0
140 -140 0
8 -109 0
8 -110 0
109 -109 0
110 -110 0
26 -115 0
26 -116 0
115 -115 0
116 -116 0
44 -121 0
44 -122 0
121 -121 0
122 -122 0
62 -127 0
62 -128 0
127 -127 0
128 -128 0
80 -133 0
80 -134 0
133 -133 0
134 -134 0
98 -139 0
98 -140 0
139 -139 0
140 -140 0
9 -109 0
9 -110 0
109 -109 0
110 -110 0
27 -115 0
27 -116 0
115 -115 0
116 -116 0
45 -121 0
45 -122 0
121 -121 0
122 -122 0
63 -127 0
63 -128 0
127 -127 0
128 -128 0
81 -133 0
81 -134 0
133 -133 0
134 -134 0
99 -139 0
99 -140 0
139 -139 0
140 -140 0
10 -149 -109 0
-10 149 -109 0
10 149 -110 0
-10 -149 -110 0
28 -149 -115 0
-28 149 -115 0
28 149 -116 0
-28 -149 -116 0
46 -149 -121 0
-46 149 -121 0
46 149 -122 0
-46 -149 -122 0
64 -149 -127 0
-64 149 -127 0
64 149 -128 0
-64 -149 -128 0
82 -149 -133 0
-82 149 -133 0
82 149 -134 0
-82 -149 -134 0
100 -149 -139 0
-100 149 -139 0
100 149 -140 0
-100 -149 -140 0
11 -109 0
11 -110 0
109 -109 0
110 -110 0
29 -115 0
29 -116 0
115 -115 0
116 -116 0
47 -121 0
47 -122 0
121 -121 0
122 -122 0
65 -127 0
65 -128 0
127 -127 0
128 -128 0
83 -133 0
83 -134 0
133 -133 0
134 -134 0
101 -139 0
101 -140 0
139 -139 0
140 -140 0
12 -109 0
12 -110 0
109 -109 0
110 -110 0
30 -115 0
30 -116 0
115 -115 0
116 -116 0
48 -121 0
48 -122 0
121 -121 0
122 -122 0
66 -127 0
66 -128 0
127 -127 0
128 -128 0
84 -133 0
84 -134 0
133 -133 0
134 -134 0
102 -139 0
102 -140 0
139 -139 0
140 -140 0
13 -150 -109 0
-13 150 -109 0
13 150 -110 0
-13 -150 -110 0
31 -150 -115 0
-31 150 -115 0
31 150 -116 0
-31 -150 -116 0
49 -150 -121 0
-49 150 -121 0
49 150 -122 0
-49 -150 -122 0
67 -150 -127 0
-67 150 -127 0
67 150 -128 0
-67 -150 -128 0
85 -150 -133 0
-85 150 -133 0
85 150 -134 0
-85 -150 -134 0
103 -150 -139 0
-103 150 -139 0
103 150 -140 0
-103 -150 -140 0
14 -151 -109 0
-14 151 -109 0
14 151 -110 0
-14 -151 -110 0
32 -151 -115 0
-32 151 -115 0
32 151 -116 0
-32 -151 -116 0
50 -151 -121 0
-50 151 -121 0
50 151 -122 0
-50 -151 -122 0
68 -151 -127 0
-68 151 -127 0
68 151 -128 0
-68 -151 -128 0
86 -151 -133 0
-86 151 -133 0
86 151 -134 0
-86 -151 -134 0
104 -151 -139 0
-104 151 -139 0
104 151 -140 0
-104 -151 -140 0
15 -152 -109 0
-15 152 -109 0
15 152 -110 0
-15 -152 -110 0
33 -152 -115 0
-33 152 -115 0
33 152 -116 0
-33 -152 -116 0
51 -152 -121 0
-51 152 -121 0
51 152 -122 0
-51 -152 -122 0
69 -152 -127 0
-69 152 -127 0
69 152 -128 0
-69 -152 -128 0
87 -152 -133 0
-87 152 -133 0
87 152 -134 0
-87 -152 -134 0
105 -152 -139 0
-105 152 -139 0
105 152 -140 0
-105 -152 -140 0
16 -109 0
16 -110 0
109 -109 0
110 -110 0
34 -115 0
34 -116 0
115 -115 0
116 -116 0
52 -121 0
52 -122 0
121 -121 0
122 -122 0
70 -127 0
70 -128 0
127 -127 0
128 -128 0
88 -133 0
88 -134 0
133 -133 0
134 -134 0
106 -139 0
106 -140 0
139 -139 0
140 -140 0
17 -153 -109 0
-17 153 -109 0
17 153 -110 0
-17 -153 -110 0
35 -153 -115 0
-35 153 -115 0
35 153 -116 0
-35 -153 -116 0
53 -153 -121 0
-53 153 -121 0
53 153 -122 0
-53 -153 -122 0
71 -153 -127 0
-71 153 -127 0
71 153 -128 0
-71 -153 -128 0
89 -153 -133 0
-89 153 -133 0
89 153 -134 0
-89 -153 -134 0
107 -153 -139 0
-107 153 -139 0
107 153 -140 0
-107 -153 -140 0
18 -109 0
18 -110 0
109 -109 0
110 -110 0
36 -115 0
36 -116 0
115 -115 0
116 -116 0
54 -121 0
54 -122 0
121 -121 0
122 -122 0
72 -127 0
72 -128 0
127 -127 0
128 -128 0
90 -133 0
90 -134 0
133 -133 0
134 -134 0
108 -139 0
108 -140 0
139 -139 0
140 -140 0
-199 109 0
199 -109 0
-200 110 0
199 -110 0
-199 -109 0
-200 -110 0
-205 109 199 0
205 -109 0
205 -199 0
-206 110 200 0
206 -110 0
206 -200 0
-205 -115 0
-206 -116 0
-211 115 205 0
211 -115 0
211 -205 0
-212 116 206 0
212 -116 0
212 -206 0
-211 -121 0
-212 -122 0
-217 121 211 0
217 -121 0
217 -211 0
-218 122 212 0
218 -122 0
218 -212 0
-217 -127 0
-218 -128 0
-223 127 217 0
223 -127 0
223 -217 0
-224 128 218 0
224 -128 0
224 -218 0
-223 -133 0
-224 -134 0
-229 133 223 0
229 -133 0
229 -223 0
-230 134 224 0
230 -134 0
230 -224 0
-229 -139 0
-230 -140 0
229 0
230 0
1 -111 0
1 -112 0
111 -111 0
112 -112 0
19 -117 0
19 -118 0
117 -117 0
118 -118 0
37 -123 0
37 -124 0
123 -123 0
124 -124 0
55 -129 0
55 -130 0
129 -129 0
130 -130 0
73 -135 0
73 -136 0
135 -135 0
136 -136 0
91 -141 0
91 -142 0
141 -141 0
142 -142 0
2 -111 0
2 -112 0
111 -111 0
112 -112 0
20 -117 0
20 -118 0
117 -117 0
118 -118 0
38 -123 0
38 -124 0
123 -123 0
124 -124 0
56 -129 0
56 -130 0
129 -129 0
130 -130 0
74 -135 0
74 -136 0
135 -135 0
136 -136 0
92 -141 0
92 -142 0
141 -141 0
142 -142 0
3 -111 0
3 -112 0
111 -111 0
112 -112 0
21 -117 0
21 -118 0
117 -117 0
118 -118 0
39 -123 0
39 -124 0
123 -123 0
124 -124 0
57 -129 0
57 -130 0
129 -129 0
130 -130 0
75 -135 0
75 -136 0
135 -135 0
136 -136 0
93 -141 0
93 -142 0
141 -141 0
142 -142 0
-4 -111 0
-4 -112 0
111 -111 0
112 -112 0
-22 -117 0
-22 -118 0
117 -117 0
118 -118 0
-40 -123 0
-40 -124 0
123 -123 0
124 -124 0
-58 -129 0
-58 -130 0
129 -129 0
130 -130 0
-76 -135 0
-76 -136 0
135 -135 0
136 -136 0
-94 -141 0
-94 -142 0
141 -141 0
142 -142 0
5 -111 0
5 -112 0
111 -111 0
112 -112 0
23 -117 0
23 -118 0
117 -117 0
118 -118 0
41 -123 0
41 -124 0
123 -123 0
124 -124 0
59 -129 0
59 -130 0
129 -129 0
130 -130 0
77 -135 0
77 -136 0
135 -135 0
136 -136 0
95 -141 0
95 -142 0
141 -141 0
142 -142 0
6 -111 0
6 -112 0
111 -111 0
112 -112 0
24 -117 0
24 -118 0
117 -117 0
118 -118 0
42 -123 0
42 -124 0
123 -123 0
124 -124 0
60 -129 0
60 -130 0
129 -129 0
130 -130 0
78 -135 0
78 -136 0
135 -135 0
136 -136 0
96 -141 0
96 -142 0
141 -141 0
142 -142 0
7 -111 0
7 -112 0
111 -111 0
112 -112 0
25 -117 0
25 -118 0
117 -117 0
118 -118 0
43 -123 0
43 -124 0
123 -123 0
124 -124 0
61 -129 0
61 -130 0
129 -129 0
130 -130 0
79 -135 0
79 -136 0
135 -135 0
136 -136 0
97 -141 0
97 -142 0
141 -141 0
142 -142 0
8 -111 0
8 -112 0
111 -111 0
112 -112 0
26 -117 0
26 -118 0
117 -117 0
118 -118 0
44 -123 0
44 -124 0
123 -123 0
124 -124 0
62 -129 0
62 -130 0
129 -129 0
130 -130 0
80 -135 0
80 -136 0
135 -135 0
136 -136 0
98 -141 0
98 -142 0
141 -141 0
142 -142 0
9 -111 0
9 -112 0
111 -111 0
112 -112 0
27 -117 0
27 -118 0
117 -117 0
118 -118 0
45 -123 0
45 -124 0
123 -123 0
124 -124 0
63 -129 0
63 -130 0
129 -129 0
130 -130 0
81 -135 0
81 -136 0
135 -135 0
136 -136 0
99 -141 0
99 -142 0
141 -141 0
142 -142 0
10 -154 -111 0
-10 154 -111 0
10 154 -112 0
-10 -154 -112 0
28 -154 -117 0
-28 154 -117 0
28 154 -118 0
-28 -154 -118 0
46 -154 -123 0
-46 154 -123 0
46 154 -124 0
-46 -154 -124 0
64 -154 -129 0
-64 154 -129 0
64 154 -130 0
-64 -154 -130 0
82 -154 -135 0
-82 154 -135 0
82 154 -136 0
-82 -154 -136 0
100 -154 -141 0
-100 154 -141 0
100 154 -142 0
-100 -154 -142 0
11 -111 0
11 -112 0
111 -111 0
112 -112 0
29 -117 0
29 -118 0
117 -117 0
118 -118 0
47 -123 0
47 -124 0
123 -123 0
124 -124 0
65 -129 0
65 -130 0
129 -129 0
130 -130 0
83 -135 0
83 -136 0
135 -135 0
136 -136 0
101 -141 0
101 -142 0
141 -141 0
142 -142 0
12 -111 0
12 -112 0
111 -111 0
112 -112 0
30 -117 0
30 -118 0
117 -117 0
118 -118 0
48 -123 0
48 -124 0
123 -123 0
124 -124 0
66 -129 0
66 -130 0
129 -129 0
130 -130 0
84 -135 0
84 -136 0
135 -135 0
136 -136 0
102 -141 0
102 -142 0
141 -141 0
142 -142 0
13 -111 0
13 -112 0
111 -111 0
112 -112 0
31 -117 0
31 -118 0
117 -117 0
118 -118 0
49 -123 0
49 -124 0
123 -123 0
124 -124 0
67 -129 0
67 -130 0
129 -129 0
130 -130 0
85 -135 0
85 -136 0
135 -135 0
136 -136 0
103 -141 0
103 -142 0
141 -141 0
142 -142 0
14 -155 -111 0
-14 155 -111 0
14 155 -112 0
-14 -155 -112 0
32 -155 -117 0
-32 155 -117 0
32 155 -118 0
-32 -155 -118 0
50 -155 -123 0
-50 155 -123 0
50 155 -124 0
-50 -155 -124 0
68 -155 -129 0
-68 155 -129 0
68 155 -130 0
-68 -155 -130 0
86 -155 -135 0
-86 155 -135 0
86 155 -136 0
-86 -155 -136 0
104 -155 -141 0
-104 155 -141 0
104 155 -142 0
-104 -155 -142 0
15 -156 -111 0
-15 156 -111 0
15 156 -112 0
-15 -156 -112 0
33 -156 -117 0
-33 156 -117 0
33 156 -118 0
-33 -156 -118 0
51 -156 -123 0
-51 156 -123 0
51 156 -124 0
-51 -156 -124 0
69 -156 -129 0
-69 156 -129 0
69 156 -130 0
-69 -156 -130 0
87 -156 -135 0
-87 156 -135 0
87 156 -136 0
-87 -156 -136 0
105 -156 -141 0
-105 156 -141 0
105 156 -142 0
-105 -156 -142 0
16 -111 0
16 -112 0
111 -111 0
112 -112 0
34 -117 0
34 -118 0
117 -117 0
118 -118 0
52 -123 0
52 -124 0
123 -123 0
124 -124 0
70 -129 0
70 -130 0
129 -129 0
130 -130 0
88 -135 0
88 -136 0
135 -135 0
136 -136 0
106 -141 0
106 -142 0
141 -141 0
142 -142 0
17 -111 0
17 -112 0
111 -111 0
112 -112 0
35 -117 0
35 -118 0
117 -117 0
118 -118 0
53 -123 0
53 -124 0
123 -123 0
124 -124 0
71 -129 0
71 -130 0
129 -129 0
130 -130 0
89 -135 0
89 -136 0
135 -135 0
136 -136 0
107 -141 0
107 -142 0
141 -141 0
142 -142 0
18 -111 0
18 -112 0
111 -111 0
112 -112 0
36 -117 0
36 -118 0
117 -117 0
118 -118 0
54 -123 0
54 -124 0
123 -123 0
124 -124 0
72 -129 0
72 -130 0
129 -129 0
130 -130 0
90 -135 0
90 -136 0
135 -135 0
136 -136 0
108 -141 0
108 -142 0
141 -141 0
142 -142 0
-201 111 0
201 -111 0
-202 112 0
201 -112 0
-201 -111 0
-202 -112 0
-207 111 201 0
207 -111 0
207 -201 0
-208 112 202 0
208 -112 0
208 -202 0
-207 -117 0
-208 -118 0
-213 117 207 0
213 -117 0
213 -207 0
-214 118 208 0
214 -118 0
214 -208 0
-213 -123 0
-214 -124 0
-219 123 213 0
219 -123 0
219 -213 0
-220 124 214 0
220 -124 0
220 -214 0
-219 -129 0
-220 -130 0
-225 129 219 0
225 -129 0
225 -219 0
-226 130 220 0
226 -130 0
226 -220 0
-225 -135 0
-226 -136 0
-231 135 225 0
231 -135 0
231 -225 0
-232 136 226 0
232 -136 0
232 -226 0
-231 -141 0
-232 -142 0
231 0
232 0
1 -157 -113 0
-1 157 -113 0
1 157 -114 0
-1 -157 -114 0
19 -157 -119 0
-19 157 -119 0
19 157 -120 0
-19 -157 -120 0
37 -157 -125 0
-37 157 -125 0
37 157 -126 0
-37 -157 -126 0
55 -157 -131 0
-55 157 -131 0
55 157 -132 0
-55 -157 -132 0
73 -157 -137 0
-73 157 -137 0
73 157 -138 0
-73 -157 -138 0
91 -157 -143 0
-91 157 -143 0
91 157 -144 0
-91 -157 -144 0
2 -158 -113 0
-2 158 -113 0
2 158 -114 0
-2 -158 -114 0
20 -158 -119 0
-20 158 -119 0
20 158 -120 0
-20 -158 -120 0
38 -158 -125 0
-38 158 -125 0
38 158 -126 0
-38 -158 -126 0
56 -158 -131 0
-56 158 -131 0
56 158 -132 0
-56 -158 -132 0
74 -158 -137 0
-74 158 -137 0
74 158 -138 0
-74 -158 -138 0
92 -158 -143 0
-92 158 -143 0
92 158 -144 0
-92 -158 -144 0
3 -159 -113 0
-3 159 -113 0
3 159 -114 0
-3 -159 -114 0
21 -159 -119 0
-21 159 -119 0
21 159 -120 0
-21 -159 -120 0
39 -159 -125 0
-39 159 -125 0
39 159 -126 0
-39 -159 -126 0
57 -159 -131 0
-57 159 -131 0
57 159 -132 0
-57 -159 -132 0
75 -159 -137 0
-75 159 -137 0
75 159 -138 0
-75 -159 -138 0
93 -159 -143 0
-93 159 -143 0
93 159 -144 0
-93 -159 -144 0
4 -160 -113 0
-4 160 -113 0
4 160 -114 0
-4 -160 -114 0
22 -160 -119 0
-22 160 -119 0
22 160 -120 0
-22 -160 -120 0
40 -160 -125 0
-40 160 -125 0
40 160 -126 0
-40 -160 -126 0
58 -160 -131 0
-58 160 -131 0
58 160 -132 0
-58 -160 -132 0
76 -160 -137 0
-76 160 -137 0
76 160 -138 0
-76 -160 -138 0
94 -160 -143 0
-94 160 -143 0
94 160 -144 0
-94 -160 -144 0
5 -113 0
5 -114 0
113 -113 0
114 -114 0
23 -119 0
23 -120 0
119 -119 0
120 -120 0
41 -125 0
41 -126 0
125 -125 0
126 -126 0
59 -131 0
59 -132 0
131 -131 0
132 -132 0
77 -137 0
77 -138 0
137 -137 0
138 -138 0
95 -143 0
95 -144 0
143 -143 0
144 -144 0
6 -161 -113 0
-6 161 -113 0
6 161 -114 0
-6 -161 -114 0
24 -161 -119 0
-24 161 -119 0
24 161 -120 0
-24 -161 -120 0
42 -161 -125 0
-42 161 -125 0
42 161 -126 0
-42 -161 -126 0
60 -161 -131 0
-60 161 -131 0
60 161 -132 0
-60 -161 -132 0
78 -161 -137 0
-78 161 -137 0
78 161 -138 0
-78 -161 -138 0
96 -161 -143 0
-96 161 -143 0
96 161 -144 0
-96 -161 -144 0
7 -113 0
7 -114 0
113 -113 0
114 -114 0
25 -119 0
25 -120 0
119 -119 0
120 -120 0
43 -125 0
43 -126 0
125 -125 0
126 -126 0
61 -131 0
61 -132 0
131 -131 0
132 -132 0
79 -137 0
79 -138 0
137 -137 0
138 -138 0
97 -143 0
97 -144 0
143 -143 0
144 -144 0
8 -162 -113 0
-8 162 -113 0
8 162 -114 0
-8 -162 -114 0
26 -162 -119 0
-26 162 -119 0
26 162 -120 0
-26 -162 -120 0
44 -162 -125 0
-44 162 -125 0
44 162 -126 0
-44 -162 -126 0
62 -162 -131 0
-62 162 -131 0
62 162 -132 0
-62 -162 -132 0
80 -162 -137 0
-80 162 -137 0
80 162 -138 0
-80 -162 -138 0
98 -162 -143 0
-98 162 -143 0
98 162 -144 0
-98 -162 -144 0
9 -163 -113 0
-9 163 -113 0
9 163 -114 0
-9 -163 -114 0
27 -163 -119 0
-27 163 -119 0
27 163 -120 0
-27 -163 -120 0
45 -163 -125 0
-45 163 -125 0
45 163 -126 0
-45 -163 -126 0
63 -163 -131 0
-63 163 -131 0
63 163 -132 0
-63 -163 -132 0
81 -163 -137 0
-81 163 -137 0
81 163 -138 0
-81 -163 -138 0
99 -163 -143 0
-99 163 -143 0
99 163 -144 0
-99 -163 -144 0
10 -113 0
10 -114 0
113 -113 0
114 -114 0
28 -119 0
28 -120 0
119 -119 0
120 -120 0
46 -125 0
46 -126 0
125 -125 0
126 -126 0
64 -131 0
64 -132 0
131 -131 0
132 -132 0
82 -137 0
82 -138 0
137 -137 0
138 -138 0
100 -143 0
100 -144 0
143 -143 0
144 -144 0
11 -164 -113 0
-11 164 -113 0
11 164 -114 0
-11 -164 -114 0
29 -164 -119 0
-29 164 -119 0
29 164 -120 0
-29 -164 -120 0
47 -164 -125 0
-47 164 -125 0
47 164 -126 0
-47 -164 -126 0
65 -164 -131 0
-65 164 -131 0
65 164 -132 0
-65 -164 -132 0
83 -164 -137 0
-83 164 -137 0
83 164 -138 0
-83 -164 -138 0
101 -164 -143 0
-101 164 -143 0
101 164 -144 0
-101 -164 -144 0
12 -165 -113 0
-12 165 -113 0
12 165 -114 0
-12 -165 -114 0
30 -165 -119 0
-30 165 -119 0
30 165 -120 0
-30 -165 -120 0
48 -165 -125 0
-48 165 -125 0
48 165 -126 0
-48 -165 -126 0
66 -165 -131 0
-66 165 -131 0
66 165 -132 0
-66 -165 -132 0
84 -165 -137 0
-84 165 -137 0
84 165 -138 0
-84 -165 -138 0
102 -165 -143 0
-102 165 -143 0
102 165 -144 0
-102 -165 -144 0
13 -166 -113 0
-13 166 -113 0
13 166 -114 0
-13 -166 -114 0
31 -166 -119 0
-31 166 -119 0
31 166 -120 0
-31 -166 -120 0
49 -166 -125 0
-49 166 -125 0
49 166 -126 0
-49 -166 -126 0
67 -166 -131 0
-67 166 -131 0
67 166 -132 0
-67 -166 -132 0
85 -166 -137 0
-85 166 -137 0
85 166 -138 0
-85 -166 -138 0
103 -166 -143 0
-103 166 -143 0
103 166 -144 0
-103 -166 -144 0
14 -167 -113 0
-14 167 -113 0
14 167 -114 0
-14 -167 -114 0
32 -167 -119 0
-32 167 -119 0
32 167 -120 0
-32 -167 -120 0
50 -167 -125 0
-50 167 -125 0
50 167 -126 0
-50 -167 -126 0
68 -167 -131 0
-68 167 -131 0
68 167 -132 0
-68 -167 -132 0
86 -167 -137 0
-86 167 -137 0
86 167 -138 0
-86 -167 -138 0
104 -167 -143 0
-104 167 -143 0
104 167 -144 0
-104 -167 -144 0
15 -113 0
15 -114 0
113 -113 0
114 -114 0
33 -119 0
33 -120 0
119 -119 0
120 -120 0
51 -125 0
51 -126 0
125 -125 0
126 -126 0
69 -131 0
69 -132 0
131 -131 0
132 -132 0
87 -137 0
87 -138 0
137 -137 0
138 -138 0
105 -143 0
105 -144 0
143 -143 0
144 -144 0
16 -113 0
16 -114 0
113 -113 0
114 -114 0
34 -119 0
34 -120 0
119 -119 0
120 -120 0
52 -125 0
52 -126 0
125 -125 0
126 -126 0
70 -131 0
70 -132 0
131 -131 0
132 -132 0
88 -137 0
88 -138 0
137 -137 0
138 -138 0
106 -143 0
106 -144 0
143 -143 0
144 -144 0
17 -168 -113 0
-17 168 -113 0
17 168 -114 0
-17 -168 -114 0
35 -168 -119 0
-35 168 -119 0
35 168 -120 0
-35 -168 -120 0
53 -168 -125 0
-53 168 -125 0
53 168 -126 0
-53 -168 -126 0
71 -168 -131 0
-71 168 -131 0
71 168 -132 0
-71 -168 -132 0
89 -168 -137 0
-89 168 -137 0
89 168 -138 0
-89 -168 -138 0
107 -168 -143 0
-107 168 -143 0
107 168 -144 0
-107 -168 -144 0
18 -169 -113 0
-18 169 -113 0
18 169 -114 0
-18 -169 -114 0
36 -169 -119 0
-36 169 -119 0
36 169 -120 0
-36 -169 -120 0
54 -169 -125 0
-54 169 -125 0
54 169 -126 0
-54 -169 -126 0
72 -169 -131 0
-72 169 -131 0
72 169 -132 0
-72 -169 -132 0
90 -169 -137 0
-90 169 -137 0
90 169 -138 0
-90 -169 -138 0
108 -169 -143 0
-108 169 -143 0
108 169 -144 0
-108 -169 -144 0
-203 113 0
203 -113 0
-204 114 0
203 -114 0
-203 -113 0
-204 -114 0
-209 113 203 0
209 -113 0
209 -203 0
-210 114 204 0
210 -114 0
210 -204 0
-209 -119 0
-210 -120 0
-215 119 209 0
215 -119 0
215 -209 0
-216 120 210 0
216 -120 0
216 -210 0
-215 -125 0
-216 -126 0
-221 125 215 0
221 -125 0
221 -215 0
-222 126 216 0
222 -126 0
222 -216 0
-221 -131 0
-222 -132 0
-227 131 221 0
227 -131 0
227 -221 0
-228 132 222 0
228 -132 0
228 -222 0
-227 -137 0
-228 -138 0
-233 137 227 0
233 -137 0
233 -227 0
-234 138 228 0
234 -138 0
234 -228 0
-233 -143 0
-234 -144 0
233 0
234 0
-109 116 122 128 134 140 0
-110 0
-115 122 128 134 140 0
-116 109 0
-121 128 134 140 0
-122 109 115 0
-127 134 140 0
-128 109 115 121 0
-133 140 0
-134 109 115 121 127 0
-139 0
-140 109 115 121 127 133 0
-111 118 124 130 136 142 0
-112 0
-117 124 130 136 142 0
-118 111 0
-123 130 136 142 0
-124 111 117 0
-129 136 142 0
-130 111 117 123 0
-135 142 0
-136 111 117 123 129 0
-141 0
-142 111 117 123 129 135 0
-113 120 126 132 138 144 0
-114 0
-119 126 132 138 144 0
-120 113 0
-125 132 138 144 0
-126 113 119 0
-131 138 144 0
-132 113 119 125 0
-137 144 0
-138 113 119 125 131 0
-143 0
-144 113 119 125 131 137 0
